h -1 2 -3 4 0
h -5 6 0
h -7 6 0
h 5 8 0
h 6 -2 9 0
1 -9 0
h 10 -5 -3 0
h 5 10 -2 0
1 -10 0
h 8 7 0
h 11 0
h 5 2 0
h -6 -8 0
h 7 6 12 0
1 -12 0
h 13 0
h 3 8 0
h -1 14 0
h -5 -7 0
h 5 15 -8 0
1 -15 0
h 16 0
h 8 17 -3 0
h -3 14 0
1 -17 0
h 18 -7 1 0
1 -18 0
